-314 -321
-112 -373
-113 334
-48 -325
-436 184
-148 311
204 98
-223 38
-97 218
-443 -138
290 96
-228 -267
-416 -201
6 32
262 -196
200 220
-149 -307
99 -221
-49 163
-13 243
178 215
-36 17
233 -5
314 182
397 -190
320 184
-240 271
-184 -198
-204 193
-243 -84
